NAME : OMNETRUN
COMMENT : 524.61
TYPE : CVRP
DIMENSION : 21
EDGE_WEIGHT_TYPE : EUC_2D
CAPACITY : 21
NODE_COORD_SECTION
1 0.107093 -0.77924
2 71.039 -145.245
3 127.934 -638.346
4 120.454 -1610.12
5 118.594 -2465.19
6 61.195 -5277.74
7 289.81 -1211.3
8 464.949 -2021.33
9 362.29 -2863.8
10 409.01 -4200.44
11 280.41 -4902.39
12 728.812 -351.062
13 538.102 -1567.98
14 603.225 -3209.03
15 662.575 -3560.37
16 641.697 -4482.14
17 621.455 -5076.17
18 600.686 -5485.69
19 875.014 -1093.08
20 890.28 -1537.02
21 851.534 -1957.18
DEMAND_SECTION
1 0
2 1
3 1
4 1
5 1
6 1
7 1
8 1
9 1
10 1
11 1
12 1
13 1
14 1
15 1
16 1
17 1
18 1
19 1
20 1
21 1
DEPOT_SECTION
1
-1
EOF
